import DataTypes.dzn;

interface ILEDControl {
	in void initialise();
	in void destruct();
	in void reset();
	in void trigger_red(out framebuffer_t fb);
	in void trigger_blue(out framebuffer_t fb);
	out void initialise_framebuffer();
	out void destruct_framebuffer();
	out void light_led(framebuffer_t fb, unsigned_t color);

	behaviour {
		enum State {Initialising, Operating, Destructing};
		State state = State.Initialising;

		[state.Initialising] {
			on initialise: {
				initialise_framebuffer;
				state = State.Operating;
			}
			on destruct: illegal;
			on reset: illegal;
			on trigger_red: illegal;
			on trigger_blue: illegal;
		}
		[state.Operating] {
			on initialise: illegal;
			on destruct: {
				destruct_framebuffer;
				state = State.Destructing;
			}
			on reset: illegal;
			on trigger_red: {
				light_led;
			}
			on trigger_blue: {
				light_led;
			}
		}
		[state.Destructing] {
			on initialise: illegal;
			on destruct: illegal;
			on reset: {
				state = State.Initialising;
			}
			on trigger_red: illegal;
			on trigger_blue: illegal;
		}
	}
}

component LEDControl {
	provides ILEDControl iLEDControl;

	behaviour {
		enum State {Initialising, Operating, Destructing};
		State state = State.Initialising;
		unsigned_t color_red = $0x3000$;
		unsigned_t color_blue = $0x0006$;
		framebuffer_t fb;
		unsigned_t NULL = $0$;

		[state.Initialising] {
			on iLEDControl.initialise(): {
				iLEDControl.initialise_framebuffer();
				state = State.Operating;
			}
			on iLEDControl.destruct(): illegal;
			on iLEDControl.reset(): illegal;
			on iLEDControl.trigger_red(fb): illegal;
			on iLEDControl.trigger_blue(fb): illegal;
		}

		[state.Operating] {
			on iLEDControl.initialise(): illegal;
			on iLEDControl.destruct(): {
				iLEDControl.destruct_framebuffer();
				state = State.Destructing;
			}
			on iLEDControl.reset(): illegal;
			on iLEDControl.trigger_red(fb): {
				iLEDControl.light_led(fb, color_red);
			}
			on iLEDControl.trigger_blue(fb): {
				iLEDControl.light_led(fb, color_blue);
			}
		}
		[state.Destructing] {
			on iLEDControl.initialise(): illegal;
			on iLEDControl.destruct(): illegal;
			on iLEDControl.reset(): {
				state = State.Initialising;
			}
			on iLEDControl.trigger_red(fb): illegal;
			on iLEDControl.trigger_blue(fb): illegal;
		}
	}
}
